\* economic_diameter *\
Minimize
OBJ: 2 p1_0.0254 + 5 p1_0.0508 + 8 p1_0.0762 + 11 p1_0.1016 + 16 p1_0.1524
 + 23 p1_0.2032 + 32 p1_0.254 + 50 p1_0.3048 + 60 p1_0.3556 + 90 p1_0.4064
 + 130 p1_0.4572 + 170 p1_0.508 + 300 p1_0.5588 + 550 p1_0.6096 + 2 p2_0.0254
 + 5 p2_0.0508 + 8 p2_0.0762 + 11 p2_0.1016 + 16 p2_0.1524 + 23 p2_0.2032
 + 32 p2_0.254 + 50 p2_0.3048 + 60 p2_0.3556 + 90 p2_0.4064 + 130 p2_0.4572
 + 170 p2_0.508 + 300 p2_0.5588 + 550 p2_0.6096 + 2 p3_0.0254 + 5 p3_0.0508
 + 8 p3_0.0762 + 11 p3_0.1016 + 16 p3_0.1524 + 23 p3_0.2032 + 32 p3_0.254
 + 50 p3_0.3048 + 60 p3_0.3556 + 90 p3_0.4064 + 130 p3_0.4572 + 170 p3_0.508
 + 300 p3_0.5588 + 550 p3_0.6096 + 2 p4_0.0254 + 5 p4_0.0508 + 8 p4_0.0762
 + 11 p4_0.1016 + 16 p4_0.1524 + 23 p4_0.2032 + 32 p4_0.254 + 50 p4_0.3048
 + 60 p4_0.3556 + 90 p4_0.4064 + 130 p4_0.4572 + 170 p4_0.508 + 300 p4_0.5588
 + 550 p4_0.6096 + 2 p5_0.0254 + 5 p5_0.0508 + 8 p5_0.0762 + 11 p5_0.1016
 + 16 p5_0.1524 + 23 p5_0.2032 + 32 p5_0.254 + 50 p5_0.3048 + 60 p5_0.3556
 + 90 p5_0.4064 + 130 p5_0.4572 + 170 p5_0.508 + 300 p5_0.5588 + 550 p5_0.6096
 + 2 p6_0.0254 + 5 p6_0.0508 + 8 p6_0.0762 + 11 p6_0.1016 + 16 p6_0.1524
 + 23 p6_0.2032 + 32 p6_0.254 + 50 p6_0.3048 + 60 p6_0.3556 + 90 p6_0.4064
 + 130 p6_0.4572 + 170 p6_0.508 + 300 p6_0.5588 + 550 p6_0.6096
Subject To
_C1: p1_0.0254 + p1_0.0508 + p1_0.0762 + p1_0.1016 + p1_0.1524 + p1_0.2032
 + p1_0.254 + p1_0.3048 + p1_0.3556 + p1_0.4064 + p1_0.4572 + p1_0.508
 + p1_0.5588 + p1_0.6096 = 1000
_C2: p2_0.0254 + p2_0.0508 + p2_0.0762 + p2_0.1016 + p2_0.1524 + p2_0.2032
 + p2_0.254 + p2_0.3048 + p2_0.3556 + p2_0.4064 + p2_0.4572 + p2_0.508
 + p2_0.5588 + p2_0.6096 = 500
_C3: p3_0.0254 + p3_0.0508 + p3_0.0762 + p3_0.1016 + p3_0.1524 + p3_0.2032
 + p3_0.254 + p3_0.3048 + p3_0.3556 + p3_0.4064 + p3_0.4572 + p3_0.508
 + p3_0.5588 + p3_0.6096 = 200
_C4: p4_0.0254 + p4_0.0508 + p4_0.0762 + p4_0.1016 + p4_0.1524 + p4_0.2032
 + p4_0.254 + p4_0.3048 + p4_0.3556 + p4_0.4064 + p4_0.4572 + p4_0.508
 + p4_0.5588 + p4_0.6096 = 700
_C5: p5_0.0254 + p5_0.0508 + p5_0.0762 + p5_0.1016 + p5_0.1524 + p5_0.2032
 + p5_0.254 + p5_0.3048 + p5_0.3556 + p5_0.4064 + p5_0.4572 + p5_0.508
 + p5_0.5588 + p5_0.6096 = 300
_C6: p6_0.0254 + p6_0.0508 + p6_0.0762 + p6_0.1016 + p6_0.1524 + p6_0.2032
 + p6_0.254 + p6_0.3048 + p6_0.3556 + p6_0.4064 + p6_0.4572 + p6_0.508
 + p6_0.5588 + p6_0.6096 = 2000
pressure_path_p1: 208.157057639 p1_0.0254 + 7.11630657503 p1_0.0508
 + 0.987688009304 p1_0.0762 + 0.24328658295 p1_0.1016
 + 0.0337662856808 p1_0.1524 + 0.00831728661764 p1_0.2032
 + 0.00280537640761 p1_0.254 + 0.00115437469923 p1_0.3048
 + 0.000544865306115 p1_0.3556 + 0.000284344725636 p1_0.4064
 + 0.000160218230715 p1_0.4572 + 9.59079591218e-05 p1_0.508
 + 6.0291448195e-05 p1_0.5588 + 3.94648365776e-05 p1_0.6096 <= 47
pressure_path_p1,p2: 208.157057639 p1_0.0254 + 7.11630657503 p1_0.0508
 + 0.987688009304 p1_0.0762 + 0.24328658295 p1_0.1016
 + 0.0337662856808 p1_0.1524 + 0.00831728661764 p1_0.2032
 + 0.00280537640761 p1_0.254 + 0.00115437469923 p1_0.3048
 + 0.000544865306115 p1_0.3556 + 0.000284344725636 p1_0.4064
 + 0.000160218230715 p1_0.4572 + 9.59079591218e-05 p1_0.508
 + 6.0291448195e-05 p1_0.5588 + 3.94648365776e-05 p1_0.6096
 + 184.706400191 p2_0.0254 + 6.3145943022 p2_0.0508 + 0.876416580728 p2_0.0762
 + 0.215878286622 p2_0.1016 + 0.029962227304 p2_0.1524
 + 0.00738027376024 p2_0.2032 + 0.0024893269693 p2_0.254
 + 0.00102432460175 p2_0.3048 + 0.000483481609622 p2_0.3556
 + 0.000252310881415 p2_0.4064 + 0.000142168288579 p2_0.4572
 + 8.51031143502e-05 p2_0.508 + 5.34991053617e-05 p2_0.5588
 + 3.50187881259e-05 p2_0.6096 <= 27
pressure_path_p1,p2,p3: 208.157057639 p1_0.0254 + 7.11630657503 p1_0.0508
 + 0.987688009304 p1_0.0762 + 0.24328658295 p1_0.1016
 + 0.0337662856808 p1_0.1524 + 0.00831728661764 p1_0.2032
 + 0.00280537640761 p1_0.254 + 0.00115437469923 p1_0.3048
 + 0.000544865306115 p1_0.3556 + 0.000284344725636 p1_0.4064
 + 0.000160218230715 p1_0.4572 + 9.59079591218e-05 p1_0.508
 + 6.0291448195e-05 p1_0.5588 + 3.94648365776e-05 p1_0.6096
 + 184.706400191 p2_0.0254 + 6.3145943022 p2_0.0508 + 0.876416580728 p2_0.0762
 + 0.215878286622 p2_0.1016 + 0.029962227304 p2_0.1524
 + 0.00738027376024 p2_0.2032 + 0.0024893269693 p2_0.254
 + 0.00102432460175 p2_0.3048 + 0.000483481609622 p2_0.3556
 + 0.000252310881415 p2_0.4064 + 0.000142168288579 p2_0.4572
 + 8.51031143502e-05 p2_0.508 + 5.34991053617e-05 p2_0.5588
 + 3.50187881259e-05 p2_0.6096 + 24.1464550332 p3_0.0254
 + 0.82549964275 p3_0.0508 + 0.114572930527 p3_0.0762
 + 0.0282215198564 p3_0.1016 + 0.00391692747812 p3_0.1524
 + 0.000964814691317 p3_0.2032 + 0.000325426848583 p3_0.254
 + 0.000133908775819 p3_0.3048 + 6.32049941641e-05 p3_0.3556
 + 3.29843110265e-05 p3_0.4064 + 1.8585496679e-05 p3_0.4572
 + 1.11254321546e-05 p3_0.508 + 6.99387644716e-06 p3_0.5588
 + 4.57796585244e-06 p3_0.6096 <= 47
pressure_path_p1,p2,p3,p4: 208.157057639 p1_0.0254 + 7.11630657503 p1_0.0508
 + 0.987688009304 p1_0.0762 + 0.24328658295 p1_0.1016
 + 0.0337662856808 p1_0.1524 + 0.00831728661764 p1_0.2032
 + 0.00280537640761 p1_0.254 + 0.00115437469923 p1_0.3048
 + 0.000544865306115 p1_0.3556 + 0.000284344725636 p1_0.4064
 + 0.000160218230715 p1_0.4572 + 9.59079591218e-05 p1_0.508
 + 6.0291448195e-05 p1_0.5588 + 3.94648365776e-05 p1_0.6096
 + 184.706400191 p2_0.0254 + 6.3145943022 p2_0.0508 + 0.876416580728 p2_0.0762
 + 0.215878286622 p2_0.1016 + 0.029962227304 p2_0.1524
 + 0.00738027376024 p2_0.2032 + 0.0024893269693 p2_0.254
 + 0.00102432460175 p2_0.3048 + 0.000483481609622 p2_0.3556
 + 0.000252310881415 p2_0.4064 + 0.000142168288579 p2_0.4572
 + 8.51031143502e-05 p2_0.508 + 5.34991053617e-05 p2_0.5588
 + 3.50187881259e-05 p2_0.6096 + 24.1464550332 p3_0.0254
 + 0.82549964275 p3_0.0508 + 0.114572930527 p3_0.0762
 + 0.0282215198564 p3_0.1016 + 0.00391692747812 p3_0.1524
 + 0.000964814691317 p3_0.2032 + 0.000325426848583 p3_0.254
 + 0.000133908775819 p3_0.3048 + 6.32049941641e-05 p3_0.3556
 + 3.29843110265e-05 p3_0.4064 + 1.8585496679e-05 p3_0.4572
 + 1.11254321546e-05 p3_0.508 + 6.99387644716e-06 p3_0.5588
 + 4.57796585244e-06 p3_0.6096 + 24.1464550332 p4_0.0254
 + 0.82549964275 p4_0.0508 + 0.114572930527 p4_0.0762
 + 0.0282215198564 p4_0.1016 + 0.00391692747812 p4_0.1524
 + 0.000964814691317 p4_0.2032 + 0.000325426848583 p4_0.254
 + 0.000133908775819 p4_0.3048 + 6.32049941641e-05 p4_0.3556
 + 3.29843110265e-05 p4_0.4064 + 1.8585496679e-05 p4_0.4572
 + 1.11254321546e-05 p4_0.508 + 6.99387644716e-06 p4_0.5588
 + 4.57796585244e-06 p4_0.6096 <= 67
pressure_path_p1,p2,p6: 208.157057639 p1_0.0254 + 7.11630657503 p1_0.0508
 + 0.987688009304 p1_0.0762 + 0.24328658295 p1_0.1016
 + 0.0337662856808 p1_0.1524 + 0.00831728661764 p1_0.2032
 + 0.00280537640761 p1_0.254 + 0.00115437469923 p1_0.3048
 + 0.000544865306115 p1_0.3556 + 0.000284344725636 p1_0.4064
 + 0.000160218230715 p1_0.4572 + 9.59079591218e-05 p1_0.508
 + 6.0291448195e-05 p1_0.5588 + 3.94648365776e-05 p1_0.6096
 + 184.706400191 p2_0.0254 + 6.3145943022 p2_0.0508 + 0.876416580728 p2_0.0762
 + 0.215878286622 p2_0.1016 + 0.029962227304 p2_0.1524
 + 0.00738027376024 p2_0.2032 + 0.0024893269693 p2_0.254
 + 0.00102432460175 p2_0.3048 + 0.000483481609622 p2_0.3556
 + 0.000252310881415 p2_0.4064 + 0.000142168288579 p2_0.4572
 + 8.51031143502e-05 p2_0.508 + 5.34991053617e-05 p2_0.5588
 + 3.50187881259e-05 p2_0.6096 + 87.1687729325 p6_0.0254
 + 2.98005611241 p6_0.0508 + 0.413608612592 p6_0.0762
 + 0.101879768802 p6_0.1016 + 0.0141401195937 p6_0.1524
 + 0.00348298384312 p6_0.2032 + 0.00117479187033 p6_0.254
 + 0.000483411070361 p6_0.3048 + 0.00022817021285 p6_0.3556
 + 0.000119073458785 p6_0.4064 + 6.70936970922e-05 p6_0.4572
 + 4.01628424515e-05 p6_0.508 + 2.52479143254e-05 p6_0.5588
 + 1.65264700485e-05 p6_0.6096 <= 57
pressure_path_p1,p5: 208.157057639 p1_0.0254 + 7.11630657503 p1_0.0508
 + 0.987688009304 p1_0.0762 + 0.24328658295 p1_0.1016
 + 0.0337662856808 p1_0.1524 + 0.00831728661764 p1_0.2032
 + 0.00280537640761 p1_0.254 + 0.00115437469923 p1_0.3048
 + 0.000544865306115 p1_0.3556 + 0.000284344725636 p1_0.4064
 + 0.000160218230715 p1_0.4572 + 9.59079591218e-05 p1_0.508
 + 6.0291448195e-05 p1_0.5588 + 3.94648365776e-05 p1_0.6096
 + 1.22563437363 p5_0.0254 + 0.0419010051862 p5_0.0508
 + 0.00581553365694 p5_0.0762 + 0.00143247796683 p5_0.1016
 + 0.000198816801456 p5_0.1524 + 4.89724080921e-05 p5_0.2032
 + 1.65181320064e-05 p5_0.254 + 6.79698938618e-06 p5_0.3048
 + 3.20818162857e-06 p5_0.3556 + 1.67422941914e-06 p5_0.4064
 + 9.43369266812e-07 p5_0.4572 + 5.64708651909e-07 p5_0.508
 + 3.54997674266e-07 p5_0.5588 + 2.32370022943e-07 p5_0.6096 <= 67
Bounds
 p1_0.0254 <= 1000
 p1_0.0508 <= 1000
 p1_0.0762 <= 1000
 p1_0.1016 <= 1000
 p1_0.1524 <= 1000
 p1_0.2032 <= 1000
 p1_0.254 <= 1000
 p1_0.3048 <= 1000
 p1_0.3556 <= 1000
 p1_0.4064 <= 1000
 p1_0.4572 <= 1000
 p1_0.508 <= 1000
 p1_0.5588 <= 1000
 p1_0.6096 <= 1000
 p2_0.0254 <= 500
 p2_0.0508 <= 500
 p2_0.0762 <= 500
 p2_0.1016 <= 500
 p2_0.1524 <= 500
 p2_0.2032 <= 500
 p2_0.254 <= 500
 p2_0.3048 <= 500
 p2_0.3556 <= 500
 p2_0.4064 <= 500
 p2_0.4572 <= 500
 p2_0.508 <= 500
 p2_0.5588 <= 500
 p2_0.6096 <= 500
 p3_0.0254 <= 200
 p3_0.0508 <= 200
 p3_0.0762 <= 200
 p3_0.1016 <= 200
 p3_0.1524 <= 200
 p3_0.2032 <= 200
 p3_0.254 <= 200
 p3_0.3048 <= 200
 p3_0.3556 <= 200
 p3_0.4064 <= 200
 p3_0.4572 <= 200
 p3_0.508 <= 200
 p3_0.5588 <= 200
 p3_0.6096 <= 200
 p4_0.0254 <= 700
 p4_0.0508 <= 700
 p4_0.0762 <= 700
 p4_0.1016 <= 700
 p4_0.1524 <= 700
 p4_0.2032 <= 700
 p4_0.254 <= 700
 p4_0.3048 <= 700
 p4_0.3556 <= 700
 p4_0.4064 <= 700
 p4_0.4572 <= 700
 p4_0.508 <= 700
 p4_0.5588 <= 700
 p4_0.6096 <= 700
 p5_0.0254 <= 300
 p5_0.0508 <= 300
 p5_0.0762 <= 300
 p5_0.1016 <= 300
 p5_0.1524 <= 300
 p5_0.2032 <= 300
 p5_0.254 <= 300
 p5_0.3048 <= 300
 p5_0.3556 <= 300
 p5_0.4064 <= 300
 p5_0.4572 <= 300
 p5_0.508 <= 300
 p5_0.5588 <= 300
 p5_0.6096 <= 300
 p6_0.0254 <= 2000
 p6_0.0508 <= 2000
 p6_0.0762 <= 2000
 p6_0.1016 <= 2000
 p6_0.1524 <= 2000
 p6_0.2032 <= 2000
 p6_0.254 <= 2000
 p6_0.3048 <= 2000
 p6_0.3556 <= 2000
 p6_0.4064 <= 2000
 p6_0.4572 <= 2000
 p6_0.508 <= 2000
 p6_0.5588 <= 2000
 p6_0.6096 <= 2000
End
